models/cnf/MobileMedia.cnf
p cnf 43 75
c 1 MobileMedia2
c 2 MediaSelection
c 3 Photo
c 4 Music
c 5 Video
c 6 MusicPlayer
c 7 MediaManagement
c 8 Favourites
c 9 SetFavourites
c 10 ViewFavourites
c 11 CopyMedia
c 12 SMSTransfer
c 13 ReceivePhoto
c 14 SendPhoto
c 15 ScreenSize
c 16 Screen1
c 17 Screen2
c 18 Screen3
c 19 Speakerphone
c 20 Calendar
c 21 Radio
c 22 CallManager
c 23 TVDigital
c 24 OS
c 25 Androide
c 26 WindowsMobile
c 27 Symbia
c 28 iOS
c 29 TouchScreen
c 30 Connectivity
c 31 Bluetooth
c 32 WiFi
c 33 Gmail
c 34 GoogleMaps
c 35 Youtube
c 36 GPS
c 37 ResolutionCamera
c 38 Resolution3MP
c 39 Resolution8MP
c 40 Language
c 41 Portuguese
c 42 English
c 43 Spanish
1
-1 2
-2 1
-2 3 4 5
-3 2
-4 2
-5 2
-4 6
-6 4
-1 7
-7 1
-8 7
-8 9
-9 8
-8 10
-10 8
-11 7
-12 7
-13 12
-14 12
-1 15
-15 1
-15 16 17 18
-16 -17
-16 -18
-16 15
-17 -18
-17 15
-18 15
-1 19
-19 1
-1 20
-20 1
-1 21
-21 1
-1 22
-22 1
-23 1
-1 24
-24 1
-24 25 26 27 28
-25 -26
-25 -27
-25 -28
-25 24
-26 -27
-26 -28
-26 24
-27 -28
-27 24
-28 24
-29 1
-30 1
-30 31 32
-31 30
-32 30
-32 33 34 35
-33 32
-34 32
-35 32
-36 1
-37 1
-37 38 39
-38 -39
-38 37
-39 37
-1 40
-40 1
-40 41 42 43
-41 40
-42 40
-43 40
5 -37
3 -37
-11 12